c cvc-mult-const_const7_2n_3
c i 2  4  7  3  6  12  22  34  46  0
c 2  : (a_119)[0]
c 3  : (c_120)[0]
c 4  : (a_119)[1]
c 5  : n3065
c 6  : (c_120)[1]
c 7  : (a_119)[2]
c 8  : n3067
c 9  : n3068
c 10  : n3070
c 11  : n3071
c 12  : (c_120)[2]
c 13  : n2959
c 14  : n3073
c 15  : n3074
c 16  : n3076
c 17  : n3077
c 18  : n3078
c 19  : n3079
c 20  : n3081
c 21  : n3083
c 22  : (c_120)[3]
c 23  : n2960
c 24  : n3086
c 25  : n3087
c 26  : n3088
c 27  : n3089
c 28  : n3090
c 29  : n3091
c 30  : n3093
c 31  : n3095
c 32  : n3096
c 33  : n3097
c 34  : (c_120)[4]
c 35  : n2961
c 36  : n3100
c 37  : n3101
c 38  : n3102
c 39  : n3103
c 40  : n3104
c 41  : n3105
c 42  : n3107
c 43  : n3108
c 44  : n3109
c 45  : n3110
c 46  : (c_120)[5]
p cnf 45 129
-2  3  0
2  -3  0
2  4  -5  0
-2  -4  -5  0
-2  4  5  0
2  -4  5  0
-5  6  0
5  -6  0
4  7  -8  0
-4  -7  -8  0
-4  7  8  0
4  -7  8  0
4  -9  0
2  -9  0
-2  -4  9  0
8  9  -10  0
-8  -9  -10  0
8  -9  10  0
-8  9  10  0
2  10  -11  0
-2  -10  -11  0
-2  10  11  0
2  -10  11  0
-11  12  0
11  -12  0
7  13  -14  0
-7  -13  -14  0
-7  13  14  0
7  -13  14  0
7  -15  0
4  -15  0
-4  -7  15  0
8  -16  0
4  -16  0
2  -16  0
-2  -4  -8  16  0
-15  17  0
-16  17  0
15  16  -17  0
14  17  -18  0
-14  -17  -18  0
14  -17  18  0
-14  17  18  0
4  18  -19  0
-4  -18  -19  0
-4  18  19  0
4  -18  19  0
10  -20  0
2  -20  0
-2  -10  20  0
19  20  -21  0
-19  -20  -21  0
19  -20  21  0
-19  20  21  0
-21  22  0
21  -22  0
13  23  -24  0
-13  -23  -24  0
-13  23  24  0
13  -23  24  0
13  -25  0
7  -25  0
-7  -13  25  0
14  -26  0
17  -26  0
-14  -17  26  0
-25  27  0
-26  27  0
25  26  -27  0
24  27  -28  0
-24  -27  -28  0
24  -27  28  0
-24  27  28  0
7  28  -29  0
-7  -28  -29  0
-7  28  29  0
7  -28  29  0
18  -30  0
4  -30  0
-4  -18  30  0
19  -31  0
10  -31  0
2  -31  0
-2  -10  -19  31  0
-30  32  0
-31  32  0
30  31  -32  0
29  32  -33  0
-29  -32  -33  0
29  -32  33  0
-29  32  33  0
-33  34  0
33  -34  0
23  35  -36  0
-23  -35  -36  0
-23  35  36  0
23  -35  36  0
23  -37  0
13  -37  0
-13  -23  37  0
24  -38  0
27  -38  0
-24  -27  38  0
-37  39  0
-38  39  0
37  38  -39  0
36  39  -40  0
-36  -39  -40  0
36  -39  40  0
-36  39  40  0
13  40  -41  0
-13  -40  -41  0
-13  40  41  0
13  -40  41  0
28  -42  0
7  -42  0
-7  -28  42  0
29  -43  0
32  -43  0
-29  -32  43  0
-42  44  0
-43  44  0
42  43  -44  0
41  44  -45  0
-41  -44  -45  0
41  -44  45  0
-41  44  45  0
-45  46  0
45  -46  0
-13  0
-23  0
-35  0
